Traveling Salesman Problem/TSP_generados/Aleatorio1621103556_16.tsp
NAME: Aleatorio1621103556_16.tsp
COMMENT: Randomly generated scenario
TYPE: TSP
DIMENSION: 16
EDGE_WEIGHT_TYPE: ATT
NODE_COORD_SECTION
1 49.08 38.92
2 33.73 2.85
3 4.35 6.47
4 40.47 30.13
5 39.11 2.73
6 3.07 37.44
7 4.94 13.23
8 25.82 14.67
9 48.92 42.88
10 19.13 45.86
11 1.5 17.12
12 18.98 17.92
13 39.06 32.82
14 39.12 0.85
15 28.68 22.03
16 12.17 19.23
