Traveling Salesman Problem/TSP_generados/Aleatorio1621103556_16.opt.tour
NAME: Aleatorio1621103556_16.opt.tour
COMMENT: Optimal solution for Aleatorio1621103556_16 (186.72960642736805)
TYPE: TOUR
DIMENSION: 16
TOUR_SECTION
1 9 10 6 11 7 3 16 12 8 2 14 5 15 4 13
-1
EOF
